interdiction/MCDM/NO_CORR/GEN_FROM_60/15_ITEMS_1000_GEN/K5015W19.KNP.mps
NAME          BLANK   
ROWS
 N  OBJROW
 L  R0000000
COLUMNS
    C0000000  OBJROW     -346.         R0000000  916.        
    C0000001  OBJROW     -229.         R0000000  759.        
    C0000002  OBJROW     -862.         R0000000  506.        
    C0000003  OBJROW     -843.         R0000000  384.        
    C0000004  OBJROW     -609.         R0000000  714.        
    C0000005  OBJROW     -802.         R0000000  297.        
    C0000006  OBJROW     -449.         R0000000  912.        
    C0000007  OBJROW     -413.         R0000000  124.        
    C0000008  OBJROW     -997.         R0000000  652.        
    C0000009  OBJROW     -783.         R0000000  234.        
    C0000010  OBJROW     -842.         R0000000  808.        
    C0000011  OBJROW     -496.         R0000000  954.        
    C0000012  OBJROW     -155.         R0000000  417.        
    C0000013  OBJROW     -465.         R0000000  291.        
    C0000014  OBJROW     -314.         R0000000  293.        
RHS
    RHS       R0000000  14458.      
BOUNDS
 BV BOUND     C0000000  1.          
 BV BOUND     C0000001  1.          
 BV BOUND     C0000002  1.          
 BV BOUND     C0000003  1.          
 BV BOUND     C0000004  1.          
 BV BOUND     C0000005  1.          
 BV BOUND     C0000006  1.          
 BV BOUND     C0000007  1.          
 BV BOUND     C0000008  1.          
 BV BOUND     C0000009  1.          
 BV BOUND     C0000010  1.          
 BV BOUND     C0000011  1.          
 BV BOUND     C0000012  1.          
 BV BOUND     C0000013  1.          
 BV BOUND     C0000014  1.          
ENDATA
