data/MCDM/NO_CORR/GEN_FROM_60/15_ITEMS_1000_GEN/K5015W19.KNP.txt
N 15
M 16
LC 15
LC 16
LC 17
LC 18
LC 19
LC 20
LC 21
LC 22
LC 23
LC 24
LC 25
LC 26
LC 27
LC 28
LC 29
LR 1
LR 2
LR 3
LR 4
LR 5
LR 6
LR 7
LR 8
LR 9
LR 10
LR 11
LR 12
LR 13
LR 14
LR 15
LR 16
LO -346
LO -229
LO -862
LO -843
LO -609
LO -802
LO -449
LO -413
LO -997
LO -783
LO -842
LO -496
LO -155
LO -465
LO -314
OS 1
IC 290
IC 556
IC 895
IC 724
IC 261
IC 574
IC 477
IC 891
IC 643
IC 379
IC 64
IC 179
IC 430
IC 796
IC 270
IB 3715
